NAME : NONE
TYPE : TSP
COMMENT : NONE
DIMENSION : 20
EDGE_WEIGHT_TYPE : EUC_2D
NODE_COORD_SECTION : 
1 78 46
2 96 40
3 58 74
4 56 32
5 6 91
6 43 37
7 92 4
8 9 0
9 3 99
10 21 82
11 39 87
12 24 40
13 68 66
14 21 26
15 54 17
16 97 10
17 3 95
18 19 87
19 29 26
20 63 99
EOF